p cnf 49 165
-3 -1 0
-3 -2 0
1 2 3 0
-4 -3 0
-4 -2 0
3 2 4 0
-7 -5 0
-7 6 0
5 -6 7 0
-7 -8 -9 0
7 8 -9 0
-7 8 9 0
7 -8 9 0
-11 -9 0
-11 -10 0
9 10 11 0
-12 -1 0
-12 1 0
-11 12 -13 0
11 -12 -13 0
-11 -12 13 0
11 12 13 0
-14 4 0
-14 13 0
-4 -13 14 0
16 15 0
16 -8 0
-15 8 -16 0
6 16 -17 0
-6 -16 -17 0
6 -16 17 0
-6 16 17 0
-18 -14 0
-18 17 0
14 -17 18 0
-19 -1 0
-19 -3 0
1 3 19 0
-20 -16 0
-20 -19 0
16 19 20 0
15 -20 -21 0
-15 20 -21 0
15 20 21 0
-15 -20 21 0
22 -15 0
22 -9 0
15 9 -22 0
-23 5 0
-23 -9 0
-5 9 23 0
-16 -23 -24 0
16 23 -24 0
-16 23 24 0
16 -23 24 0
-22 -24 -25 0
22 24 -25 0
-22 24 25 0
22 -24 25 0
-26 21 0
-26 25 0
-21 -25 26 0
27 -6 0
27 -10 0
6 10 -27 0
28 -12 0
28 3 0
12 -3 -28 0
29 12 0
29 28 0
-12 -28 -29 0
30 -27 0
30 -29 0
27 29 -30 0
31 -26 0
31 30 0
26 -30 -31 0
32 18 0
32 31 0
-18 -31 -32 0
33 -5 0
33 27 0
5 -27 -33 0
-35 34 0
-35 5 0
-34 -5 35 0
36 -33 0
36 35 0
33 -35 -36 0
28 -38 0
-28 -38 0
-38 10 -39 0
38 -10 -39 0
-38 -10 39 0
38 10 39 0
40 37 0
40 39 0
-37 -39 -40 0
-41 -36 0
-41 40 0
36 -40 41 0
-42 -32 0
-42 41 0
32 -41 42 0
-43 1 0
-43 8 0
-1 -8 43 0
-10 -43 -44 0
10 43 -44 0
-10 43 44 0
10 -43 44 0
42 44 -45 0
-42 -44 -45 0
42 -44 45 0
-42 44 45 0
47 -46 0
47 16 0
46 -16 -47 0
-28 -47 -48 0
28 47 -48 0
-28 47 48 0
28 -47 48 0
45 48 -49 0
-45 -48 -49 0
45 -48 49 0
-45 48 49 0
29 11 41 0
13 48 -6 -17 -15 9 0
27 -15 13 -41 2 0
-17 -30 14 -48 43 0
-38 -12 43 0
21 -43 -13 0
-39 -8 16 0
-16 -30 37 -3 46 47 0
-32 -14 3 28 0
-25 44 22 1 -12 0
-10 -3 5 -38 -2 0
-15 12 30 -34 0
36 30 37 1 0
-23 -27 0
21 -28 -26 4 6 0
13 -6 -17 18 0
-5 -37 -1 0
-30 -10 -49 31 4 -22 0
-36 33 22 -19 -45 0
39 36 -11 -15 -17 0
23 -42 -37 49 0
3 -26 0
-1 -47 -35 -26 40 0
44 4 29 0
30 -33 14 47 16 0
20 -11 -45 0
-24 13 0
-44 -4 38 37 23 0
28 -26 -34 0
-32 -26 -24 -1 13 12 0
30 10 19 -7 13 0
-41 -4 13 0
-21 -28 0
2 25 -33 0
43 34 36 -22 0
-12 19 -36 0
49 14 -12 -48 23 0
-28 -46 0
49 0
